(set-info :source |printed by MathSAT|)
(declare-fun |!{$(in_main#0)<CELLCOUNT_5>}| () Int)
(declare-fun |!{$(in_main#0)<CELLCOUNT_5>}.next| () Int)
(declare-fun |!{$(in_main#0)<MINVAL>}| () Int)
(declare-fun |!{$(in_main#0)<MINVAL>}.next| () Int)
(declare-fun |!{$(in_main#0)<i>}| () Int)
(declare-fun |!{$(in_main#0)<i>}.next| () Int)
(declare-fun |!{$(in_main#0)<k>}| () Int)
(declare-fun |!{$(in_main#0)<k>}.next| () Int)
(declare-fun |!{$(in_main#0)<volArray.1>}| () (Array Int Int))
(declare-fun |!{$(in_main#0)<volArray.1>}.next| () (Array Int Int))
(declare-fun |!{$(in_main#0)<$(in___VERIFIER_nondet_int#0)<h#<__VERIFIER_nondet_int.return>>>}| () Int)
(declare-fun !pc () Int)
(declare-fun !pc.next () Int)
(declare-fun |%{$(in_main#0)<MINVAL>}#1| () Int)
(declare-fun |%{$(in_main#0)<k>}#1| () Int)
(declare-fun |%{$(in_main#0)<volArray.1>}#1| () (Array Int Int))
(declare-fun |%{$(in_main#0)<volArray.1>}#2| () (Array Int Int))
(declare-fun |%{$(in_main#0)<volArray.1>}#4| () (Array Int Int))
(declare-fun |%{$(in_main#0)<volArray.1>}#6| () (Array Int Int))
(declare-fun |%{$(in_main#0)<volArray.1>}#8| () (Array Int Int))
(declare-fun |%{$(in_main#0)<volArray.1>}#10| () (Array Int Int))
(define-fun .def_28 () Int (! !pc :next !pc.next))
(define-fun .def_31 () Bool (! (= .def_28 2) :init true))
(define-fun .def_256 () Bool (= .def_28 37))
(define-fun .def_111 () Bool (= !pc.next 104))
(define-fun .def_259 () Bool (and .def_111 .def_256))
(define-fun .def_252 () Bool (= |!{$(in_main#0)<k>}.next| 0))
(define-fun .def_10 () Int (! |!{$(in_main#0)<MINVAL>}| :next |!{$(in_main#0)<MINVAL>}.next|))
(define-fun .def_82 () Bool (= .def_10 |!{$(in_main#0)<MINVAL>}.next|))
(define-fun .def_8 () Int (! |!{$(in_main#0)<CELLCOUNT_5>}| :next |!{$(in_main#0)<CELLCOUNT_5>}.next|))
(define-fun .def_80 () Bool (= .def_8 |!{$(in_main#0)<CELLCOUNT_5>}.next|))
(define-fun .def_91 () Bool (and .def_80 .def_82))
(define-fun .def_12 () Int (! |!{$(in_main#0)<i>}| :next |!{$(in_main#0)<i>}.next|))
(define-fun .def_84 () Bool (= .def_12 |!{$(in_main#0)<i>}.next|))
(define-fun .def_92 () Bool (and .def_84 .def_91))
(define-fun .def_253 () Bool (and .def_92 .def_252))
(define-fun .def_16 () (Array Int Int) (! |!{$(in_main#0)<volArray.1>}| :next |!{$(in_main#0)<volArray.1>}.next|))
(define-fun .def_88 () Bool (= .def_16 |!{$(in_main#0)<volArray.1>}.next|))
(define-fun .def_254 () Bool (and .def_88 .def_253))
(define-fun .def_122 () Bool (<= .def_12 .def_8))
(define-fun .def_238 () Bool (not .def_122))
(define-fun .def_255 () Bool (and .def_238 .def_254))
(define-fun .def_260 () Bool (and .def_255 .def_259))
(define-fun .def_61 () Bool (= !pc.next 37))
(define-fun .def_257 () Bool (and .def_61 .def_256))
(define-fun .def_244 () Bool (= |!{$(in_main#0)<volArray.1>}.next| |%{$(in_main#0)<volArray.1>}#10|))
(define-fun .def_239 () Int (* (- 1) |!{$(in_main#0)<i>}.next|))
(define-fun .def_240 () Int (+ .def_12 .def_239))
(define-fun .def_241 () Bool (= .def_240 (- 1)))
(define-fun .def_242 () Bool (and .def_91 .def_241))
(define-fun .def_14 () Int (! |!{$(in_main#0)<k>}| :next |!{$(in_main#0)<k>}.next|))
(define-fun .def_86 () Bool (= .def_14 |!{$(in_main#0)<k>}.next|))
(define-fun .def_243 () Bool (and .def_86 .def_242))
(define-fun .def_245 () Bool (and .def_243 .def_244))
(define-fun .def_124 () Int (* 5 .def_12))
(define-fun .def_211 () Int (+ .def_124 (- 1)))
(define-fun .def_214 () (Array Int Int) (store |%{$(in_main#0)<volArray.1>}#8| .def_211 0))
(define-fun .def_228 () Bool (= .def_214 |%{$(in_main#0)<volArray.1>}#10|))
(define-fun .def_209 () Bool (<= .def_10 1))
(define-fun .def_213 () Bool (not .def_209))
(define-fun .def_230 () Bool (and .def_213 .def_228))
(define-fun .def_212 () (Array Int Int) (store |%{$(in_main#0)<volArray.1>}#8| .def_211 1))
(define-fun .def_227 () Bool (= .def_212 |%{$(in_main#0)<volArray.1>}#10|))
(define-fun .def_229 () Bool (and .def_209 .def_227))
(define-fun .def_231 () Bool (or .def_229 .def_230))
(define-fun .def_246 () Bool (and .def_231 .def_245))
(define-fun .def_186 () Int (+ .def_124 (- 2)))
(define-fun .def_189 () (Array Int Int) (store |%{$(in_main#0)<volArray.1>}#6| .def_186 0))
(define-fun .def_201 () Bool (= .def_189 |%{$(in_main#0)<volArray.1>}#8|))
(define-fun .def_184 () Bool (<= .def_10 3))
(define-fun .def_188 () Bool (not .def_184))
(define-fun .def_203 () Bool (and .def_188 .def_201))
(define-fun .def_187 () (Array Int Int) (store |%{$(in_main#0)<volArray.1>}#6| .def_186 3))
(define-fun .def_200 () Bool (= .def_187 |%{$(in_main#0)<volArray.1>}#8|))
(define-fun .def_202 () Bool (and .def_184 .def_200))
(define-fun .def_204 () Bool (or .def_202 .def_203))
(define-fun .def_247 () Bool (and .def_204 .def_246))
(define-fun .def_164 () Int (+ .def_124 (- 3)))
(define-fun .def_167 () (Array Int Int) (store |%{$(in_main#0)<volArray.1>}#4| .def_164 0))
(define-fun .def_177 () Bool (= .def_167 |%{$(in_main#0)<volArray.1>}#6|))
(define-fun .def_161 () Bool (<= .def_10 7))
(define-fun .def_166 () Bool (not .def_161))
(define-fun .def_179 () Bool (and .def_166 .def_177))
(define-fun .def_165 () (Array Int Int) (store |%{$(in_main#0)<volArray.1>}#4| .def_164 7))
(define-fun .def_176 () Bool (= .def_165 |%{$(in_main#0)<volArray.1>}#6|))
(define-fun .def_178 () Bool (and .def_161 .def_176))
(define-fun .def_180 () Bool (or .def_178 .def_179))
(define-fun .def_248 () Bool (and .def_180 .def_247))
(define-fun .def_143 () Int (+ .def_124 (- 4)))
(define-fun .def_146 () (Array Int Int) (store |%{$(in_main#0)<volArray.1>}#2| .def_143 0))
(define-fun .def_154 () Bool (= .def_146 |%{$(in_main#0)<volArray.1>}#4|))
(define-fun .def_140 () Bool (<= .def_10 5))
(define-fun .def_145 () Bool (not .def_140))
(define-fun .def_156 () Bool (and .def_145 .def_154))
(define-fun .def_144 () (Array Int Int) (store |%{$(in_main#0)<volArray.1>}#2| .def_143 5))
(define-fun .def_153 () Bool (= .def_144 |%{$(in_main#0)<volArray.1>}#4|))
(define-fun .def_155 () Bool (and .def_140 .def_153))
(define-fun .def_157 () Bool (or .def_155 .def_156))
(define-fun .def_249 () Bool (and .def_157 .def_248))
(define-fun .def_126 () Int (+ .def_124 (- 5)))
(define-fun .def_129 () (Array Int Int) (store .def_16 .def_126 0))
(define-fun .def_135 () Bool (= .def_129 |%{$(in_main#0)<volArray.1>}#2|))
(define-fun .def_123 () Bool (<= .def_10 2))
(define-fun .def_128 () Bool (not .def_123))
(define-fun .def_137 () Bool (and .def_128 .def_135))
(define-fun .def_127 () (Array Int Int) (store .def_16 .def_126 2))
(define-fun .def_134 () Bool (= .def_127 |%{$(in_main#0)<volArray.1>}#2|))
(define-fun .def_136 () Bool (and .def_123 .def_134))
(define-fun .def_138 () Bool (or .def_136 .def_137))
(define-fun .def_250 () Bool (and .def_138 .def_249))
(define-fun .def_251 () Bool (and .def_122 .def_250))
(define-fun .def_258 () Bool (and .def_251 .def_257))
(define-fun .def_261 () Bool (or .def_258 .def_260))
(define-fun .def_115 () Bool (= !pc.next 0))
(define-fun .def_106 () Bool (= .def_28 104))
(define-fun .def_116 () Bool (and .def_106 .def_115))
(define-fun .def_66 () Int (* (- 1) .def_14))
(define-fun .def_64 () Int (* 5 .def_8))
(define-fun .def_67 () Int (+ .def_64 .def_66))
(define-fun .def_68 () Bool (<= .def_67 0))
(define-fun .def_100 () Bool (and .def_68 .def_80))
(define-fun .def_101 () Bool (and .def_82 .def_100))
(define-fun .def_102 () Bool (and .def_84 .def_101))
(define-fun .def_103 () Bool (and .def_86 .def_102))
(define-fun .def_104 () Bool (and .def_88 .def_103))
(define-fun .def_117 () Bool (and .def_104 .def_116))
(define-fun .def_112 () Bool (and .def_106 .def_111))
(define-fun .def_93 () Int (* (- 1) |!{$(in_main#0)<k>}.next|))
(define-fun .def_94 () Int (+ .def_14 .def_93))
(define-fun .def_95 () Bool (= .def_94 (- 1)))
(define-fun .def_96 () Bool (and .def_92 .def_95))
(define-fun .def_97 () Bool (and .def_88 .def_96))
(define-fun .def_70 () Int (select .def_16 .def_14))
(define-fun .def_72 () Bool (= .def_70 0))
(define-fun .def_71 () Bool (<= .def_10 .def_70))
(define-fun .def_73 () Bool (or .def_71 .def_72))
(define-fun .def_74 () Int (ite .def_73 1 0))
(define-fun .def_75 () Bool (= .def_74 0))
(define-fun .def_76 () Bool (not .def_75))
(define-fun .def_98 () Bool (and .def_76 .def_97))
(define-fun .def_69 () Bool (not .def_68))
(define-fun .def_99 () Bool (and .def_69 .def_98))
(define-fun .def_113 () Bool (and .def_99 .def_112))
(define-fun .def_108 () Bool (= !pc.next 124))
(define-fun .def_109 () Bool (and .def_106 .def_108))
(define-fun .def_81 () Bool (and .def_75 .def_80))
(define-fun .def_83 () Bool (and .def_81 .def_82))
(define-fun .def_85 () Bool (and .def_83 .def_84))
(define-fun .def_87 () Bool (and .def_85 .def_86))
(define-fun .def_89 () Bool (and .def_87 .def_88))
(define-fun .def_90 () Bool (and .def_69 .def_89))
(define-fun .def_110 () Bool (and .def_90 .def_109))
(define-fun .def_114 () Bool (or .def_110 .def_113))
(define-fun .def_118 () Bool (or .def_114 .def_117))
(define-fun .def_62 () Bool (and .def_31 .def_61))
(define-fun .def_57 () Bool (= |!{$(in_main#0)<volArray.1>}.next| |%{$(in_main#0)<volArray.1>}#1|))
(define-fun .def_55 () Bool (= |!{$(in_main#0)<k>}.next| |%{$(in_main#0)<k>}#1|))
(define-fun .def_53 () Bool (= |!{$(in_main#0)<i>}.next| 1))
(define-fun .def_51 () Bool (= |!{$(in_main#0)<MINVAL>}.next| |%{$(in_main#0)<MINVAL>}#1|))
(define-fun .def_50 () Bool (= |!{$(in_main#0)<CELLCOUNT_5>}.next| |!{$(in_main#0)<$(in___VERIFIER_nondet_int#0)<h#<__VERIFIER_nondet_int.return>>>}|))
(define-fun .def_52 () Bool (and .def_50 .def_51))
(define-fun .def_54 () Bool (and .def_52 .def_53))
(define-fun .def_56 () Bool (and .def_54 .def_55))
(define-fun .def_58 () Bool (and .def_56 .def_57))
(define-fun .def_45 () Bool (<= |!{$(in_main#0)<$(in___VERIFIER_nondet_int#0)<h#<__VERIFIER_nondet_int.return>>>}| 0))
(define-fun .def_46 () Bool (not .def_45))
(define-fun .def_47 () Int (ite .def_46 1 0))
(define-fun .def_48 () Bool (= .def_47 0))
(define-fun .def_49 () Bool (not .def_48))
(define-fun .def_59 () Bool (and .def_49 .def_58))
(define-fun .def_63 () Bool (and .def_59 .def_62))
(define-fun .def_119 () Bool (or .def_63 .def_118))
(define-fun .def_262 () Bool (! (or .def_119 .def_261) :trans true))
(define-fun .def_120 () Bool (= .def_28 124))
(define-fun .def_263 () Bool (! (not .def_120) :invar-property 0 :invar-property-name ||))
(assert true)
